
Gurobi 6.5.2 (win64) logging started 07/24/16 17:36:29


Gurobi 6.5.2 (win64) logging started 07/24/16 17:36:29

Optimize a model with 1790 rows, 656 columns and 4935 nonzeros
Coefficient statistics:
  Matrix range    [6e-08, 1e+03]
  Objective range [1e+00, 1e+00]
  Bounds range    [1e+00, 1e+00]
  RHS range       [6e-06, 3e+03]
Presolve removed 1564 rows and 420 columns
Presolve time: 0.00s
Presolved: 226 rows, 236 columns, 997 nonzeros
Variable types: 236 continuous, 0 integer (0 binary)

Root relaxation: objective 2.493716e+01, 214 iterations, 0.00 seconds

    Nodes    |    Current Node    |     Objective Bounds      |     Work
 Expl Unexpl |  Obj  Depth IntInf | Incumbent    BestBd   Gap | It/Node Time

*    0     0               0      24.9371623   24.93716  0.00%     -    0s

Explored 0 nodes (214 simplex iterations) in 0.00 seconds
Thread count was 8 (of 8 available processors)

Optimal solution found (tolerance 1.00e-04)
Best objective 2.493716231041e+01, best bound 2.493716231041e+01, gap 0.0%

Wrote requested result file 'H1\instance20\\Results20EC_Sol3.lp'

